80 80
80 65 1
23 95 1
48 88 1
24 86 1
44 67 1
28 96 1
18 25 1
35 91 1
20 100 1
44 70 1
50 28 1
7 6 1
8 72 1
22 32 1
44 96 1
41 91 1
7 31 1
12 78 1
99 21 1
36 86 1
18 75 1
14 77 1
16 72 1
44 88 1
41 71 1
27 84 1
44 72 1
13 99 1
25 75 1
1 99 1
35 80 1
43 84 1
71 82 1
92 32 1
36 97 1
85 65 1
29 73 1
36 84 1
100 31 1
89 66 1
49 67 1
46 89 1
25 84 1
5 85 1
30 69 1
17 2 1
74 36 1
32 67 1
22 79 1
50 87 1
10 70 1
21 92 1
27 46 1
45 81 1
80 39 1
22 90 1
43 89 1
2 84 1
43 88 1
34 97 1
20 89 1
20 94 1
26 91 1
8 76 1
72 45 1
49 78 1
21 5 1
44 99 1
11 77 1
91 55 1
28 88 1
41 95 1
73 51 1
94 55 1
47 82 1
50 99 1
99 48 1
9 78 1
27 83 1
21 76 1
100 100 
100 100 
100 100 
100 100 
100 100 
100 100 
100 100 
100 100 
100 100 
100 100 
100 100 
100 100 
100 100 
100 100 
100 100 
100 100 
100 100 
100 100 
100 100 
100 100 
100 100 
100 100 
100 100 
100 100 
100 100 
100 100 
100 100 
100 100 
100 100 
100 100 
100 100 
100 100 
100 100 
100 100 
100 100 
100 100 
100 100 
100 100 
100 100 
100 100 
100 100 
100 100 
100 100 
100 100 
100 100 
100 100 
100 100 
100 100 
100 100 
100 100 
100 100 
100 100 
100 100 
100 100 
100 100 
100 100 
100 100 
100 100 
100 100 
100 100 
100 100 
100 100 
100 100 
100 100 
100 100 
100 100 
100 100 
100 100 
100 100 
100 100 
100 100 
100 100 
100 100 
100 100 
100 100 
100 100 
100 100 
100 100 
100 100 
100 100 
